c preprocessed version of a280.tsp, 92 vertices, 257 edges
p td 92 257
1 0
0 12
0 14
0 16
0 10
0 3
0 32
0 31
0 2
78 0
75 0
1 2
1 6
78 1
3 2
2 5
2 6
3 4
3 10
3 5
5 4
4 10
4 9
4 8
6 5
5 8
5 7
6 7
25 6
8 7
7 23
24 7
25 7
9 8
8 22
8 23
10 9
11 9
9 21
9 22
10 11
10 12
12 11
13 11
11 20
11 21
12 13
12 14
14 13
15 13
13 19
13 20
14 15
14 16
16 15
15 18
15 17
15 19
16 17
16 32
18 17
17 29
17 30
17 31
17 32
19 18
18 29
18 28
18 27
20 19
19 27
21 20
20 27
26 20
22 21
26 21
23 22
26 22
24 23
26 23
24 25
24 26
26 25
26 27
26 88
28 27
87 27
27 88
29 28
28 83
28 87
30 29
29 83
29 84
31 30
30 34
30 85
30 33
30 84
32 31
31 33
75 31
34 33
75 33
35 34
85 34
34 74
75 34
36 35
73 35
35 85
35 74
37 36
49 36
72 36
50 36
36 73
36 85
38 37
81 37
82 37
84 37
37 49
37 85
39 38
38 49
38 81
80 38
40 39
39 47
48 39
39 49
80 39
41 40
40 44
40 43
40 42
40 48
80 40
79 40
41 42
41 58
79 41
43 42
42 58
44 43
56 43
43 58
43 57
44 45
44 56
44 46
44 48
44 47
46 45
45 53
45 54
45 56
45 52
47 46
46 52
46 51
48 47
49 47
47 51
47 50
49 50
51 50
71 50
72 50
52 51
70 51
51 71
53 52
52 66
52 70
54 53
64 53
53 63
53 65
53 66
54 55
54 59
54 60
54 56
54 64
56 55
57 55
55 59
56 57
58 57
57 59
58 59
59 60
59 61
61 60
60 63
60 64
61 62
61 63
62 63
62 65
62 76
77 62
64 63
63 65
66 65
67 65
65 76
65 68
66 67
66 70
66 69
67 68
67 69
69 68
76 68
68 74
75 68
69 70
69 74
69 71
69 72
69 73
70 71
71 72
72 73
73 74
75 74
75 76
78 75
75 77
77 76
77 78
80 79
79 86
80 81
80 86
81 82
86 81
83 82
82 84
83 84
84 85
87 88
89 28
89 81
89 90
89 83
89 82
89 91
89 87
90 91
90 81
90 86
91 87
91 88
